NAME: bip_30_9
TYPE: TSP
COMMENT: bip_30_9
DIMENSION: 30
EDGE_WEIGHT_TYPE: EUC_2D
NODE_COORD_SECTION
1 49 62
2 39 72
3 40 48
4 91 96
5 18 57
6 11 49
7 68 53
8 85 40
9 90 43
10 68 65
11 62 62
12 42 31
13 24 46
14 78 70
15 15 6
16 449 430
17 456 423
18 414 468
19 437 415
20 482 453
21 417 437
22 425 412
23 417 486
24 498 404
25 424 473
26 423 418
27 405 495
28 495 438
29 481 425
30 433 474
